c Sudoku solution
p cnf 729 0
178 0
221 0
234 0
249 0
266 0
339 0
353 0
381 0
462 0
513 0
629 0
651 0
677 0
695 0
755 0
793 0
822 0
859 0
569 0
868 0
896 0
925 0
123 0
936 0
833 0
746 0
961 0
943 0
952 0
141 0
342 0
258 0
663 0
984 0
979 0
719 0
998 0
917 0
632 0
376 0
116 0
212 0
297 0
394 0
686 0
614 0
648 0
811 0
738 0
724 0
771 0
875 0
782 0
887 0
767 0
844 0
164 0
157 0
365 0
135 0
318 0
327 0
415 0
447 0
545 0
431 0
537 0
499 0
591 0
572 0
588 0
474 0
483 0
456 0
554 0
428 0
526 0
273 0
285 0
189 0
192 0
